NAME: route
COMMENT: Gegenereerd door de applicatie van KBS team 2
TYPE: TSP
DIMENSION: 10
EDGE_WEIGHT_TYPE: EUC_2D
NODE_COORD_SECTION

1 5.9647502 52.2123437
# Hofstraat 1, 7311KN Apeldoorn Gelderland

2 5.6304306 52.3538098
# Knardijk West 4, 3841LA Harderwijk Gelderland

3 5.5648316 52.1691319
# Zelderseweg 67, 3784LN Terschuur Gelderland

4 5.385223 52.1539524
# Utrechtsestraat 40, 3811LC Amersfoort Utrecht

5 5.2600305 52.1138313
# Amersfoortseweg 24, 3712BD Huis ter Heide Utrecht

6 5.1765317 52.2256587
# Kerkstraat 16, 1211CN Hilversum Noord-Holland

7 4.9896689 52.1717465
# De Corridor 1, 3621ZA Breukelen Utrecht

8 4.9896689 52.1717465
# De Corridor 1, 3621ZA Breukelen Utrecht

9 5.1112247 52.1144701
# Gloriantdreef 48, 3562KZ Utrecht Utrecht

10 5.1579667 52.3533383
# Hanumanpad 5, 1363XB Almere Flevoland